GLPSOL: GLPK LP/MIP Solver, v4.55
Parameter(s) specified in the command line:
 -m tmp.mod
Reading model section from tmp.mod...
Reading data section from tmp.mod...
1145 lines were read
Generating obj...
Generating kirhoff...
Generating init_charge...
Generating batt_size...
Model has been successfully generated
GLPK Simplex Optimizer, v4.55
2500 rows, 1806 columns, 3734 non-zeros
Preprocessing...
1122 rows, 1763 columns, 3653 non-zeros
Scaling...
 A: min|aij| =  1.000e+00  max|aij| =  1.000e+00  ratio =  1.000e+00
Problem data seem to be well scaled
Constructing initial basis...
Size of triangular part is 778
      0: obj =   0.000000000e+00  infeas =  6.460e+02 (344)
*   212: obj =   1.900000000e+01  infeas =  0.000e+00 (303)
*   238: obj =   8.000000000e+00  infeas =  0.000e+00 (303)
OPTIMAL LP SOLUTION FOUND
Time used:   0.0 secs
Memory used: 4.3 Mb (4515083 bytes)
#OUTPUT:
8
-37 0 -37 -23 0 -3 0 0 0 -10 -14 -1 1 -19 -3 0 -19 -1 -19 0 -19 0 2 0 0 4 1 0 0 0 0 0 -17 0 0 0 0 1 0 0 -9 0 0 0 0 -1 0 -4 2 -1 9 0 0 0 0 0 0 0 0 0 0 0 0 0 0 0 0 0 0 0 0 0 0 0 0 0 0 0 0 0 0 0 0 0 0 0 0 0 0 0 0 0 0 0 0 0 0 0 0 0 0 0 0 0 0 0 
-19 -2 -19 -3 0 -3 0 1 -1 -19 -13 0 -2 0 1 2 0 -6 0 0 0 0 0 -8 0 -11 2 0 0 0 3 0 0 0 0 0 -14 2 0 0 -4 0 0 0 1 -1 0 0 0 -2 4 -3 3 0 0 0 0 0 0 0 0 0 0 0 0 0 0 0 0 0 0 0 0 0 0 0 0 0 0 0 0 0 0 0 0 0 0 0 0 0 0 0 0 0 0 0 0 0 0 0 0 0 0 0 0 0 
-7 0 1 -7 0 -7 0 0 0 1 0 0 0 0 -1 0 0 0 0 0 0 0 0 0 0 0 0 0 0 0 0 0 0 0 0 0 0 0 0 0 0 0 0 0 0 1 0 0 0 0 0 0 0 0 0 0 0 0 0 0 0 0 0 0 0 0 0 0 0 0 0 0 0 0 0 0 0 0 0 0 0 0 0 0 0 0 0 0 0 0 0 0 0 0 0 0 0 0 0 0 0 0 0 0 0 0 
-20 -2 -2 -4 -2 3 0 0 0 -2 -14 0 0 -4 2 0 0 0 0 -14 0 0 0 0 1 0 0 0 0 0 0 -4 0 -7 -14 0 0 0 0 0 -1 0 0 -3 0 -1 -1 0 0 0 1 0 0 0 0 0 0 0 0 0 0 0 0 0 0 0 0 0 0 0 0 0 0 0 0 0 0 0 0 0 0 0 0 0 0 0 0 0 0 0 0 0 0 0 0 0 0 0 0 0 0 0 0 0 0 0 
-31 -2 -5 -19 0 -2 0 1 -1 -5 -9 2 0 -19 0 -3 0 0 -18 -9 0 0 0 0 0 0 0 0 0 0 -3 -1 0 0 0 0 0 0 -1 0 -5 0 0 0 1 0 0 0 0 0 5 -3 3 0 0 0 0 0 0 0 0 0 0 0 0 0 0 0 0 0 0 0 0 0 0 0 0 0 0 0 0 0 0 0 0 0 0 0 0 0 0 0 0 0 0 0 0 0 0 0 0 0 0 0 0 0 
-7 0 -3 -7 0 -7 0 0 0 -1 0 0 0 0 -1 0 0 0 0 0 0 0 0 0 0 0 0 0 0 0 0 0 0 0 0 0 0 0 0 0 0 0 0 0 0 1 0 0 0 0 0 0 0 0 0 0 0 0 0 0 0 0 0 0 0 0 0 0 0 0 0 0 0 0 0 0 0 0 0 0 0 0 0 0 0 0 0 0 0 0 0 0 0 0 0 0 0 0 0 0 0 0 0 0 0 0 
-34 -2 -1 -18 0 -7 0 0 0 -1 -14 -1 0 -10 4 0 0 0 0 -12 0 -10 0 0 1 -2 0 0 0 0 0 0 0 -19 0 0 0 0 0 0 0 0 2 0 0 -1 -1 2 0 0 0 -2 0 0 0 0 0 0 0 0 0 0 0 0 0 0 0 0 0 0 0 0 0 0 0 0 0 0 0 0 0 0 0 0 0 0 0 0 0 0 0 0 0 0 0 0 0 0 0 0 0 0 0 0 0 0 
0 0 0 0 0 0 0 0 0 0 0 0 0 0 0 0 0 0 0 0 0 0 0 0 0 0 0 0 0 0 0 0 0 0 0 0 0 0 0 0 0 0 0 0 0 0 0 0 0 0 0 0 0 0 0 0 0 0 0 0 0 0 0 0 0 0 0 0 0 0 0 0 0 0 0 0 0 0 0 0 0 0 0 0 0 0 0 0 0 0 0 0 0 0 0 0 0 0 0 0 0 0 0 0 0 0 
#OUTPUT END
Model has been successfully processed
